Route #1: 1 5 30 6 38 21 61 71 21 16 30 31 30 1 
Route #2: 1 46 30 28 14 55 14 58 14 53 9 36 15 36 20 36 8 27 1 
Route #3: 1 74 63 75 29 23 29 62 29 22 37 70 37 72 37 48 49 30 1 
Route #4: 1 76 69 74 3 74 34 64 24 57 42 43 65 43 44 2 74 7 1 
Route #5: 1 18 4 17 50 25 19 26 56 51 19 33 45 4 41 4 52 1 
Route #6: 1 68 35 47 36 54 66 12 67 66 39 11 73 59 73 10 40 73 13 1 
Cost 850.0
